c "random instance"
p edges 150 1117
e 1 22
e 1 26
e 1 38
e 1 46
e 1 59
e 1 60
e 1 61
e 1 62
e 1 102
e 1 109
e 1 110
e 1 115
e 1 121
e 1 126
e 2 21
e 2 31
e 2 54
e 2 62
e 2 65
e 2 67
e 2 77
e 2 78
e 2 84
e 2 104
e 2 112
e 2 121
e 2 134
e 3 12
e 3 22
e 3 29
e 3 42
e 3 54
e 3 86
e 3 90
e 3 94
e 3 98
e 3 147
e 3 149
e 4 15
e 4 31
e 4 36
e 4 44
e 4 48
e 4 54
e 4 56
e 4 57
e 4 63
e 4 85
e 4 91
e 4 93
e 4 99
e 4 112
e 5 9
e 5 11
e 5 15
e 5 17
e 5 21
e 5 28
e 5 35
e 5 36
e 5 62
e 5 75
e 5 87
e 5 88
e 5 91
e 5 118
e 5 133
e 5 136
e 5 148
e 6 12
e 6 19
e 6 46
e 6 55
e 6 66
e 6 97
e 6 99
e 6 101
e 6 108
e 6 113
e 6 134
e 7 16
e 7 58
e 7 59
e 7 79
e 7 94
e 7 109
e 7 134
e 7 135
e 7 142
e 8 32
e 8 38
e 8 39
e 8 56
e 8 58
e 8 62
e 8 71
e 8 79
e 8 92
e 8 93
e 8 100
e 8 114
e 8 120
e 8 121
e 8 140
e 8 144
e 9 27
e 9 29
e 9 33
e 9 37
e 9 59
e 9 70
e 9 87
e 9 89
e 9 97
e 9 103
e 9 107
e 9 125
e 9 135
e 9 136
e 9 138
e 10 17
e 10 27
e 10 28
e 10 29
e 10 30
e 10 43
e 10 48
e 10 54
e 10 61
e 10 77
e 10 88
e 10 113
e 10 122
e 10 124
e 10 132
e 10 137
e 10 140
e 10 150
e 11 16
e 11 17
e 11 42
e 11 57
e 11 88
e 11 102
e 11 117
e 11 139
e 11 140
e 11 143
e 12 24
e 12 46
e 12 55
e 12 66
e 12 71
e 12 84
e 12 88
e 12 91
e 12 106
e 12 114
e 12 123
e 12 124
e 12 141
e 13 21
e 13 38
e 13 45
e 13 54
e 13 63
e 13 68
e 13 74
e 13 86
e 13 97
e 13 116
e 13 123
e 13 124
e 13 130
e 13 134
e 13 147
e 13 148
e 13 150
e 14 29
e 14 51
e 14 72
e 14 77
e 14 98
e 14 106
e 14 109
e 14 123
e 14 129
e 14 143
e 15 22
e 15 51
e 15 64
e 15 69
e 15 84
e 15 96
e 15 112
e 15 150
e 16 28
e 16 33
e 16 37
e 16 43
e 16 50
e 16 55
e 16 78
e 16 109
e 17 30
e 17 31
e 17 37
e 17 53
e 17 55
e 17 57
e 17 82
e 17 98
e 17 99
e 17 109
e 17 131
e 17 141
e 18 23
e 18 30
e 18 31
e 18 51
e 18 59
e 18 60
e 18 62
e 18 81
e 18 87
e 18 104
e 18 107
e 18 111
e 18 124
e 18 126
e 18 132
e 18 138
e 18 142
e 19 43
e 19 65
e 19 74
e 19 82
e 19 115
e 19 130
e 19 131
e 19 133
e 19 144
e 19 147
e 20 36
e 20 37
e 20 44
e 20 47
e 20 54
e 20 64
e 20 81
e 20 101
e 20 103
e 20 108
e 20 109
e 21 29
e 21 30
e 21 57
e 21 58
e 21 69
e 21 88
e 21 94
e 21 96
e 21 101
e 21 104
e 21 106
e 21 107
e 21 117
e 22 24
e 22 25
e 22 29
e 22 33
e 22 38
e 22 52
e 22 65
e 22 82
e 22 110
e 22 129
e 22 133
e 22 137
e 22 144
e 22 150
e 23 33
e 23 55
e 23 62
e 23 80
e 23 85
e 23 92
e 23 99
e 23 101
e 23 105
e 23 115
e 23 128
e 23 135
e 24 33
e 24 45
e 24 64
e 24 67
e 24 68
e 24 92
e 24 93
e 24 100
e 24 103
e 24 105
e 24 111
e 24 115
e 24 128
e 24 147
e 25 34
e 25 44
e 25 47
e 25 55
e 25 56
e 25 59
e 25 71
e 25 72
e 25 76
e 25 97
e 25 108
e 25 121
e 25 134
e 25 149
e 26 30
e 26 55
e 26 57
e 26 60
e 26 71
e 26 86
e 26 94
e 26 131
e 26 144
e 27 58
e 27 63
e 27 65
e 27 67
e 27 68
e 27 86
e 27 104
e 27 105
e 27 107
e 27 110
e 27 113
e 27 119
e 27 143
e 27 147
e 28 50
e 28 51
e 28 63
e 28 65
e 28 78
e 28 112
e 28 114
e 28 116
e 28 117
e 28 122
e 28 124
e 28 128
e 28 137
e 28 138
e 28 141
e 28 147
e 29 37
e 29 51
e 29 66
e 29 67
e 29 68
e 29 72
e 29 81
e 29 102
e 29 103
e 29 113
e 29 133
e 29 136
e 30 33
e 30 47
e 30 55
e 30 61
e 30 65
e 30 89
e 30 100
e 30 102
e 30 137
e 31 37
e 31 40
e 31 57
e 31 73
e 31 77
e 31 81
e 31 84
e 31 98
e 31 102
e 31 104
e 31 107
e 31 124
e 31 135
e 31 136
e 31 141
e 32 34
e 32 35
e 32 69
e 32 81
e 32 82
e 32 88
e 32 93
e 32 99
e 32 115
e 32 117
e 32 127
e 32 128
e 32 131
e 32 132
e 32 141
e 33 59
e 33 70
e 33 74
e 33 89
e 33 101
e 33 114
e 33 121
e 33 137
e 33 140
e 33 144
e 33 146
e 34 36
e 34 58
e 34 60
e 34 78
e 34 98
e 34 111
e 34 116
e 34 128
e 34 136
e 34 145
e 34 150
e 35 37
e 35 42
e 35 43
e 35 45
e 35 46
e 35 47
e 35 65
e 35 90
e 35 94
e 35 103
e 35 141
e 35 142
e 35 146
e 36 42
e 36 49
e 36 81
e 36 88
e 36 103
e 36 119
e 37 49
e 37 51
e 37 52
e 37 74
e 37 82
e 37 98
e 37 109
e 37 118
e 37 122
e 37 137
e 38 54
e 38 58
e 38 60
e 38 61
e 38 68
e 38 76
e 38 99
e 38 100
e 38 120
e 38 130
e 38 137
e 38 144
e 38 145
e 38 148
e 38 150
e 39 50
e 39 51
e 39 77
e 39 82
e 39 90
e 39 123
e 39 128
e 40 67
e 40 72
e 40 85
e 40 88
e 40 98
e 40 118
e 40 126
e 40 132
e 40 133
e 40 143
e 41 65
e 41 92
e 41 97
e 41 119
e 41 121
e 41 146
e 41 149
e 41 150
e 42 67
e 42 120
e 42 123
e 42 133
e 42 146
e 42 149
e 43 58
e 43 95
e 43 97
e 43 110
e 43 119
e 43 128
e 43 129
e 43 133
e 43 147
e 44 52
e 44 58
e 44 79
e 44 80
e 44 84
e 44 94
e 44 115
e 44 120
e 44 139
e 45 93
e 45 113
e 45 116
e 45 119
e 45 140
e 45 141
e 46 70
e 46 71
e 46 79
e 46 80
e 46 83
e 46 87
e 46 91
e 46 93
e 46 123
e 46 127
e 46 132
e 47 53
e 47 54
e 47 58
e 47 60
e 47 73
e 47 96
e 47 104
e 47 130
e 47 150
e 48 54
e 48 65
e 48 68
e 48 75
e 48 86
e 48 91
e 48 98
e 48 103
e 48 112
e 48 125
e 48 127
e 48 137
e 48 145
e 48 147
e 49 53
e 49 69
e 49 71
e 49 80
e 49 85
e 49 87
e 49 104
e 49 120
e 49 130
e 49 131
e 49 135
e 49 139
e 49 140
e 49 143
e 49 146
e 49 148
e 50 51
e 50 84
e 50 98
e 50 112
e 50 122
e 50 135
e 50 143
e 51 66
e 51 71
e 51 86
e 51 98
e 51 125
e 51 136
e 52 64
e 52 67
e 52 71
e 52 75
e 52 76
e 52 85
e 52 110
e 52 112
e 52 116
e 52 129
e 52 132
e 52 138
e 53 63
e 53 65
e 53 73
e 53 74
e 53 88
e 53 92
e 53 93
e 53 96
e 53 109
e 53 110
e 53 111
e 53 125
e 53 132
e 53 144
e 54 58
e 54 85
e 54 86
e 54 88
e 54 96
e 54 100
e 54 104
e 54 107
e 54 108
e 54 109
e 54 118
e 54 144
e 55 65
e 55 72
e 55 91
e 55 92
e 55 100
e 55 115
e 55 121
e 55 128
e 55 137
e 55 141
e 55 149
e 55 150
e 56 61
e 56 80
e 56 81
e 56 90
e 56 96
e 56 97
e 56 99
e 56 105
e 56 112
e 56 120
e 56 121
e 56 128
e 57 63
e 57 106
e 57 110
e 57 111
e 57 134
e 57 142
e 58 81
e 58 92
e 58 96
e 58 140
e 58 147
e 59 64
e 59 74
e 59 80
e 59 86
e 59 89
e 59 100
e 59 116
e 59 138
e 59 143
e 59 146
e 60 65
e 60 70
e 60 78
e 60 101
e 60 113
e 60 118
e 60 138
e 60 139
e 60 149
e 61 63
e 61 81
e 61 82
e 61 85
e 61 90
e 61 91
e 61 94
e 61 101
e 61 112
e 61 128
e 61 146
e 61 150
e 62 66
e 62 73
e 62 75
e 62 77
e 62 79
e 62 80
e 62 81
e 62 87
e 62 89
e 62 94
e 62 102
e 62 104
e 62 106
e 62 124
e 62 126
e 62 127
e 62 135
e 62 144
e 62 148
e 63 89
e 63 106
e 63 120
e 63 131
e 64 67
e 64 72
e 64 86
e 64 87
e 64 93
e 64 96
e 64 108
e 64 114
e 64 119
e 64 125
e 64 132
e 64 146
e 65 68
e 65 79
e 65 81
e 65 83
e 65 86
e 65 90
e 65 93
e 65 100
e 65 117
e 65 131
e 65 134
e 65 135
e 65 140
e 66 71
e 66 92
e 66 98
e 66 108
e 66 120
e 66 149
e 67 70
e 67 86
e 67 93
e 67 95
e 67 112
e 67 115
e 67 123
e 67 126
e 67 127
e 67 131
e 67 132
e 67 138
e 67 145
e 67 147
e 68 85
e 68 91
e 68 99
e 68 105
e 68 107
e 68 109
e 68 130
e 68 139
e 68 142
e 68 145
e 68 146
e 68 149
e 69 80
e 69 86
e 69 94
e 69 108
e 69 110
e 69 120
e 69 132
e 69 145
e 69 149
e 70 72
e 70 105
e 70 130
e 70 136
e 70 137
e 70 141
e 70 143
e 70 146
e 71 77
e 71 85
e 71 97
e 71 107
e 71 121
e 71 125
e 71 130
e 71 133
e 71 135
e 71 140
e 71 143
e 71 148
e 72 77
e 72 85
e 72 95
e 72 109
e 72 114
e 72 117
e 72 123
e 72 127
e 72 131
e 72 132
e 73 94
e 73 99
e 73 102
e 73 112
e 73 114
e 73 124
e 73 128
e 73 130
e 73 132
e 73 133
e 74 77
e 74 96
e 74 101
e 74 109
e 74 112
e 74 120
e 74 132
e 74 150
e 75 106
e 75 112
e 75 130
e 76 90
e 76 102
e 76 105
e 76 119
e 76 132
e 77 87
e 77 97
e 77 107
e 77 108
e 77 109
e 77 117
e 77 128
e 77 133
e 77 146
e 77 150
e 78 79
e 78 81
e 78 98
e 78 101
e 78 108
e 78 109
e 78 114
e 78 126
e 78 127
e 78 131
e 78 140
e 78 145
e 79 82
e 79 83
e 79 86
e 79 89
e 79 94
e 79 96
e 79 105
e 79 131
e 79 135
e 79 139
e 79 147
e 79 148
e 80 97
e 80 106
e 80 107
e 80 115
e 80 117
e 80 140
e 81 89
e 81 108
e 81 109
e 81 114
e 81 131
e 82 91
e 82 95
e 82 110
e 82 150
e 83 93
e 83 100
e 83 121
e 83 125
e 83 140
e 84 97
e 84 99
e 84 134
e 84 135
e 85 86
e 85 93
e 85 128
e 85 133
e 85 136
e 86 92
e 86 94
e 86 104
e 86 106
e 86 115
e 86 118
e 86 119
e 86 120
e 87 93
e 87 99
e 87 102
e 87 123
e 87 138
e 87 141
e 87 148
e 88 89
e 88 100
e 88 110
e 88 129
e 88 150
e 89 93
e 89 109
e 89 120
e 89 142
e 90 96
e 90 105
e 90 121
e 90 123
e 90 125
e 90 128
e 90 150
e 91 95
e 91 144
e 91 145
e 91 150
e 92 104
e 92 109
e 92 136
e 92 141
e 92 147
e 93 103
e 93 136
e 93 138
e 93 150
e 94 103
e 94 108
e 94 119
e 94 121
e 94 122
e 94 123
e 94 125
e 94 149
e 94 150
e 95 97
e 95 98
e 95 106
e 95 114
e 95 135
e 95 142
e 96 103
e 96 104
e 96 136
e 96 139
e 97 100
e 97 105
e 97 106
e 97 112
e 97 127
e 97 134
e 98 107
e 98 109
e 98 114
e 98 122
e 98 131
e 98 133
e 98 137
e 98 142
e 98 145
e 98 149
e 99 118
e 99 127
e 99 139
e 99 148
e 100 103
e 100 105
e 100 109
e 100 121
e 100 123
e 101 102
e 101 109
e 101 122
e 101 126
e 102 115
e 102 129
e 102 130
e 102 139
e 103 108
e 103 120
e 103 134
e 103 135
e 103 143
e 104 108
e 104 109
e 104 119
e 104 120
e 104 123
e 105 106
e 105 113
e 105 124
e 105 128
e 105 131
e 105 144
e 105 145
e 106 110
e 106 120
e 106 122
e 106 129
e 106 132
e 106 137
e 106 141
e 107 111
e 107 134
e 107 135
e 107 144
e 108 112
e 108 115
e 109 121
e 109 122
e 110 129
e 110 130
e 111 116
e 111 119
e 111 120
e 111 132
e 111 150
e 112 114
e 112 115
e 112 116
e 112 118
e 112 123
e 112 130
e 112 132
e 112 148
e 113 124
e 113 125
e 113 128
e 113 132
e 114 118
e 114 121
e 114 129
e 114 131
e 114 149
e 115 120
e 115 130
e 116 120
e 116 133
e 116 147
e 117 122
e 117 139
e 118 123
e 118 144
e 119 131
e 119 137
e 119 139
e 120 123
e 120 136
e 120 147
e 121 123
e 121 146
e 121 150
e 122 126
e 122 131
e 122 142
e 122 146
e 123 124
e 124 126
e 124 127
e 124 129
e 124 130
e 124 149
e 126 145
e 126 147
e 128 134
e 128 138
e 129 134
e 129 139
e 129 141
e 129 149
e 131 141
e 133 141
e 133 142
e 133 143
e 134 139
e 134 143
e 135 143
e 135 148
e 136 146
e 138 143
e 138 144
e 138 148
e 139 143
e 139 145
e 140 141
e 140 149
e 142 149
e 142 150
e 143 145
e 144 149
e 146 149
e 147 148
